NAME          ClpDefau
ROWS
 N  OBJROW
 L  R_200_0
 L  R_200_1
 L  R_200_2
 L  R_200_3
 L  R_200_4
 L  R_200_5
 L  R_200_6
 L  R_200_7
 L  R_200_8
 L  R_200_9
 L  R_200_10
 L  R_200_11
 L  R_200_12
 L  R_200_13
 L  R_200_14
 L  R_200_15
COLUMNS
    x_0       OBJROW     -1.           R_200_1   42.         
    x_0       R_200_2   66.            R_200_6   58.         
    x_0       R_200_15  97.         
    x_1       OBJROW     -2.        
    x_2       OBJROW     -2.        
    x_3       OBJROW     -6.           R_200_5   25.         
    x_3       R_200_7   74.            R_200_12  67.         
    x_3       R_200_13  35.         
    x_4       OBJROW     -3.           R_200_3   47.         
    x_4       R_200_6   15.            R_200_8   94.         
    x_4       R_200_11  21.            R_200_14  76.         
    x_4       R_200_15  32.         
    x_5       OBJROW     -5.           R_200_0   5.          
    x_5       R_200_1   79.            R_200_9   34.         
    x_6       OBJROW     -5.           R_200_1   58.         
    x_7       OBJROW     -10.          R_200_1   22.         
    x_7       R_200_2   82.            R_200_6   32.         
    x_8       OBJROW     -4.           R_200_1   5.          
    x_8       R_200_3   66.            R_200_6   24.         
    x_8       R_200_8   4.          
    x_9       OBJROW     -10.          R_200_4   54.         
    x_9       R_200_10  16.            R_200_15  88.         
    x_10      OBJROW     -1.           R_200_1   26.         
    x_10      R_200_4   58.            R_200_5   82.         
    x_10      R_200_9   37.            R_200_10  40.         
    x_10      R_200_12  97.            R_200_14  48.         
    x_11      OBJROW     -10.          R_200_3   16.         
    x_11      R_200_4   79.            R_200_9   85.         
    x_11      R_200_11  91.         
    x_12      OBJROW     -3.        
    x_13      OBJROW     -7.           R_200_0   46.         
    x_13      R_200_1   70.            R_200_2   54.         
    x_13      R_200_8   38.            R_200_13  37.         
    x_13      R_200_14  70.         
    x_14      OBJROW     -7.           R_200_5   21.         
    x_14      R_200_12  57.         
    x_15      OBJROW     -9.           R_200_2   36.         
    x_16      OBJROW     -6.           R_200_4   60.         
    x_16      R_200_8   13.            R_200_9   28.         
    x_16      R_200_14  72.         
    x_17      OBJROW     -9.           R_200_0   96.         
    x_17      R_200_5   87.            R_200_12  1.          
    x_18      OBJROW     -8.           R_200_0   76.         
    x_18      R_200_6   11.         
    x_19      OBJROW     -9.           R_200_0   64.         
    x_19      R_200_4   72.            R_200_6   5.          
    x_20      OBJROW     -5.           R_200_0   41.         
    x_20      R_200_7   82.            R_200_11  65.         
    x_21      OBJROW     -1.           R_200_3   49.         
    x_21      R_200_12  92.         
    x_22      OBJROW     -1.           R_200_1   31.         
    x_22      R_200_5   18.         
    x_23      OBJROW     -6.           R_200_13  46.         
    x_23      R_200_15  24.         
    x_24      OBJROW     -8.           R_200_3   22.         
    x_24      R_200_15  41.         
    x_25      OBJROW     -6.           R_200_5   47.         
    x_25      R_200_14  19.            R_200_15  9.          
    x_26      OBJROW     -7.           R_200_2   67.         
    x_26      R_200_4   83.         
    x_27      OBJROW     -7.           R_200_7   14.         
    x_27      R_200_10  88.            R_200_12  51.         
    x_27      R_200_15  14.         
    x_28      OBJROW     -9.           R_200_2   55.         
    x_28      R_200_4   84.            R_200_8   18.         
    x_28      R_200_10  65.            R_200_12  70.         
    x_29      OBJROW     -3.           R_200_2   63.         
    x_29      R_200_3   70.            R_200_4   14.         
    x_30      OBJROW     -9.           R_200_2   27.         
    x_30      R_200_3   26.         
    x_31      OBJROW     -3.           R_200_3   71.         
    x_31      R_200_7   18.            R_200_12  99.         
    x_31      R_200_15  41.         
RHS
    RHS       R_200_0   99.            R_200_1   180.        
    RHS       R_200_2   135.           R_200_3   151.        
    RHS       R_200_4   405.           R_200_5   358.        
    RHS       R_200_6   175.           R_200_7   127.        
    RHS       R_200_8   317.           R_200_9   402.        
    RHS       R_200_10  229.           R_200_11  186.        
    RHS       R_200_12  160.           R_200_13  246.        
    RHS       R_200_14  221.           R_200_15  345.        
BOUNDS
 UI BOUND     x_0       10.         
 UI BOUND     x_1       10.         
 UI BOUND     x_2       10.         
 UI BOUND     x_3       10.         
 UI BOUND     x_4       10.         
 UI BOUND     x_5       10.         
 UI BOUND     x_6       10.         
 UI BOUND     x_7       10.         
 UI BOUND     x_8       10.         
 UI BOUND     x_9       10.         
 UI BOUND     x_10      10.         
 UI BOUND     x_11      10.         
 UI BOUND     x_12      10.         
 UI BOUND     x_13      10.         
 UI BOUND     x_14      10.         
 UI BOUND     x_15      10.         
 UI BOUND     x_16      10.         
 UI BOUND     x_17      10.         
 UI BOUND     x_18      10.         
 UI BOUND     x_19      10.         
 UI BOUND     x_20      10.         
 UI BOUND     x_21      10.         
 UI BOUND     x_22      10.         
 UI BOUND     x_23      10.         
 UI BOUND     x_24      10.         
 UI BOUND     x_25      10.         
 UI BOUND     x_26      10.         
 UI BOUND     x_27      10.         
 UI BOUND     x_28      10.         
 UI BOUND     x_29      10.         
 UI BOUND     x_30      10.         
 UI BOUND     x_31      10.         
ENDATA
